32      3       
15      15      16      
0       0       0       0       3       2       3       4       
4       0       1       2       3       5       9       10      
7       4       0       7       2       14      22      
4       4       0       0       3       6       8       16      
8       0       3       9       1       27      
7       3       0       0       1       7       
8       9       10      0       1       9       
6       0       1       0       1       22      
9       0       7       0       2       11      12      
6       0       9       2       1       16      
4       9       0       3       3       13      15      22      
10      1       0       0       3       18      26      31      
10      0       0       6       2       14      27      
9       6       0       9       2       20      26      
10      9       8       0       1       28      
1       7       2       0       2       17      19      
7       0       0       3       1       27      
8       6       5       7       1       23      
5       10      0       7       1       21      
1       0       2       0       1       25      
4       0       10      6       2       23      30      
2       0       0       4       1       28      
2       5       0       10      1       24      
7       0       9       0       1       28      
9       9       0       6       1       30      
5       0       0       9       1       30      
2       0       0       6       2       29      31      
6       0       1       6       1       29      
4       0       0       6       1       32      
5       0       2       0       1       32      
10      0       7       0       1       32      
0       0       0       0       0       